%chk=CY3.scan32.pos.chk
%nproc=16
%mem=50GB
# opt=modredundant B3LYP/cc-pVDZ Geom=PrintInputOrient

CY3 Dihedral Scan at MP2/6-31G*

0 1
C1 -6.866000175476074 1.559000015258789 0.20399999618530273
C2 -5.5279998779296875 1.940999984741211 0.08500000089406967
C3 -5.111999988555908 3.2839999198913574 0.11800000071525574
C4 -6.047999858856201 4.293000221252441 0.27799999713897705
C5 -7.4019999504089355 3.933000087738037 0.3799999952316284
C6 -7.800000190734863 2.5859999656677246 0.35600000619888306
C7 -3.6080000400543213 3.311000108718872 -0.017999999225139618
C8 -3.25600004196167 1.847000002861023 -0.1509999930858612
N9 -4.38100004196167 1.1239999532699585 -0.06800000369548798
C10 -4.423999786376953 -0.34599998593330383 -0.0860000029206276
C11 -3.0490000247955322 -0.9509999752044678 0.20499999821186066
C12 -1.9950000047683716 -0.23999999463558197 -0.6539999842643738
C13 -1.9859999418258667 1.2410000562667847 -0.32600000500679016
O14 -0.7210000157356262 -0.8700000047683716 -0.6230000257492065
C15 0.3009999990463257 -0.2809999883174896 0.18199999630451202
C16 0.4230000078678131 1.2130000591278076 -0.05900000035762787
C17 -0.7950000166893005 1.9249999523162842 -0.1940000057220459
C18 1.5989999771118164 -1.003999948501587 -0.17499999701976776
C19 2.806999921798706 -0.3440000116825104 0.48899999260902405
N20 2.815999984741211 1.090999960899353 0.21299999952316284
C21 1.6649999618530273 1.805999994277954 -0.026000000536441803
C22 2.0390000343322754 3.2639999389648438 -0.2150000035762787
C23 3.5350000858306885 3.253999948501587 0.0020000000949949026
C24 3.937000036239624 1.9270000457763672 0.25999999046325684
C25 5.264999866485596 1.590000033378601 0.5260000228881836
C26 6.210999965667725 2.622999906539917 0.5149999856948853
C27 5.810999870300293 3.931999921798706 0.23899999260902405
C28 4.46999979019165 4.2729997634887695 -0.00800000037997961
S29 -8.670000076293945 5.263000011444092 0.5099999904632568
S30 7.041999816894531 5.230999946594238 0.24699999392032623
O31 -8.99899959564209 5.486000061035156 -0.9369999766349792
O32 -9.753999710083008 4.625999927520752 1.3229999542236328
O33 -7.919000148773193 6.380000114440918 1.1710000038146973
O34 8.25100040435791 4.738999843597412 0.9259999990463257
O35 7.348999977111816 5.304999828338623 -1.3899999856948853
O36 6.413000106811523 6.519999980926514 0.6100000143051147
H37 -7.177999973297119 0.5130000114440918 0.18199999630451202
H38 -5.7870001792907715 5.35099983215332 0.3400000035762787
H39 -8.86299991607666 2.369999885559082 0.4740000069141388
H40 -3.1110000610351563 3.757999897003174 0.8579999804496765
H41 -3.2639999389648438 3.871999979019165 -0.902999997138977
H42 -4.798999786376953 -0.6600000262260437 -1.0750000476837158
H43 -5.164999961853027 -0.6629999876022339 0.6610000133514404
H44 -3.071000099182129 -2.0239999294281006 -0.032999999821186066
H45 -2.8010001182556152 -0.8450000286102295 1.2740000486373901
H46 -2.312000036239624 -0.33500000834465027 -1.7100000381469727
H47 0.06400000303983688 -0.44600000977516174 1.253999948501587
H48 -0.7990000247955322 3.0160000324249268 -0.11699999868869781
H49 1.7089999914169312 -0.9769999980926514 -1.2710000276565552
H50 1.5440000295639038 -2.059000015258789 0.1289999932050705
H51 3.73799991607666 -0.7799999713897705 0.0989999994635582
H52 2.799999952316284 -0.5009999871253967 1.5829999446868896
H53 1.5110000371932983 3.9089999198913574 0.5070000290870667
H54 1.7640000581741333 3.61899995803833 -1.222000002861023
H55 5.568999767303467 0.5680000185966492 0.75
H56 7.260000228881836 2.4200000762939453 0.7289999723434448
H57 4.193999767303467 5.314000129699707 -0.1860000044107437
H58 7.465000152587891 6.255000114440918 -1.5850000381469727

D 22 23 28 27 S 2 15.000000
