%chk=PRL.scan3.pos.chk
%nproc=16
%mem=32GB
# opt=modredundant B3LYP/cc-pVDZ Geom=PrintInputOrient

PRL Dihedral Scan at MP2/6-31G*

0 1
C1 0.7789999842643738 0.5870000123977661 -0.12999999523162842
C2 -0.4099999964237213 -0.3370000123977661 0.1420000046491623
N3 -1.468999981880188 0.4880000054836273 0.5419999957084656
C4 -1.0640000104904175 1.8289999961853027 0.5180000066757202
C5 0.21799999475479126 1.965999960899353 0.14399999380111694
C6 -2.808000087738037 0.032999999821186066 0.8529999852180481
C7 -3.7019999027252197 -0.19599999487400055 -0.375
C8 -5.0920000076293945 -0.7070000171661377 0.007000000216066837
C9 -0.4390000104904175 -1.6790000200271606 0.026000000536441803
H10 1.1399999856948853 0.47099998593330383 -1.1670000553131104
H11 1.63100004196167 0.33799999952316284 0.5270000100135803
H12 -1.7829999923706055 2.5989999771118164 0.7990000247955322
H13 0.7689999938011169 2.9000000953674316 0.06300000101327896
H14 -2.7300000190734863 -0.8999999761581421 1.4390000104904175
H15 -3.2730000019073486 0.7799999713897705 1.5190000534057617
H16 -3.7869999408721924 0.753000020980835 -0.9340000152587891
H17 -3.2070000171661377 -0.9120000004768372 -1.0509999990463257
H18 -5.71999979019165 -0.8640000224113464 -0.8840000033378601
H19 -5.0329999923706055 -1.6690000295639038 0.5450000166893005
H20 -5.619999885559082 0.006000000052154064 0.6639999747276306
H21 -1.3359999656677246 -2.2660000324249268 0.22599999606609344
H22 0.46000000834465027 -2.2170000076293945 -0.2750000059604645

D 4 3 6 7 S 6 15.000000
