%chk=CY3.scan1.neg.chk
%nproc=16
%mem=40GB
# opt=modredundant B3LYP/cc-pVDZ Geom=PrintInputOrient

CY3 Dihedral Scan at MP2/6-31G*

0 1
C1 4.557000160217285 4.293000221252441 -0.05299999937415123
C2 3.1640000343322754 4.229000091552734 -0.007000000216066837
C3 2.4700000286102295 3.009999990463257 -0.12800000607967377
C4 3.1640000343322754 1.8240000009536743 -0.2939999997615814
C5 4.565999984741211 1.8880000114440918 -0.32600000500679016
C6 5.260000228881836 3.0950000286102295 -0.2199999988079071
C7 0.9909999966621399 3.2960000038146973 -0.057999998331069946
C8 0.9430000185966492 4.803999900817871 0.11800000071525574
N9 2.234999895095825 5.2729997634887695 0.1420000046491623
C10 2.575000047683716 6.677000045776367 0.29499998688697815
C11 -0.17499999701976776 5.603000164031982 0.23199999332427979
C12 -2.63700008392334 5.86899995803833 0.3140000104904175
C13 -1.4980000257492065 5.0970001220703125 0.20600000023841858
C14 -5.214000225067139 7.473999977111816 0.5149999856948853
N15 -5.081999778747559 6.03000020980835 0.3779999911785126
C16 -3.943000078201294 5.326000213623047 0.28700000047683716
C17 -4.302000045776367 3.8589999675750732 0.15700000524520874
C18 -5.808000087738037 3.86299991607666 0.19200000166893005
C19 -6.228000164031982 5.196000099182129 0.32899999618530273
C20 -7.573999881744385 5.560999870300293 0.4129999876022339
C21 -8.510000228881836 4.526000022888184 0.34299999475479126
C22 -8.104999542236328 3.190000057220459 0.18799999356269836
C23 -6.744999885559082 2.8450000286102295 0.12700000405311584
S24 -9.369999885559082 1.8609999418258667 0.023000000044703484
S25 5.49399995803833 0.37400001287460327 -0.5609999895095825
O26 6.8520002365112305 0.7149999737739563 -1.0140000581741333
O27 5.581999778747559 -0.13099999725818634 1.024999976158142
O28 4.6579999923706055 -0.6209999918937683 -1.2680000066757202
O29 -9.579999923706055 1.8489999771118164 -1.4630000591278076
O30 -8.666000366210938 0.6570000052452087 0.5759999752044678
O31 -10.520999908447266 2.378999948501587 0.8289999961853027
H32 5.099999904632568 5.235000133514404 0.027000000700354576
H33 2.6559998989105225 0.8650000095367432 -0.41100001335144043
H34 6.348999977111816 3.0920000076293945 -0.27799999713897705
H35 0.5040000081062317 2.7820000648498535 0.7870000004768372
H36 0.46000000834465027 2.984999895095825 -0.972000002861023
H37 3.6640000343322754 6.791999816894531 0.32199999690055847
H38 2.178999900817871 7.26800012588501 -0.546999990940094
H39 2.1579999923706055 7.074999809265137 1.2339999675750732
H40 -0.04399999976158142 6.681000232696533 0.3479999899864197
H41 -2.5179998874664307 6.947999954223633 0.4269999861717224
H42 -1.621000051498413 4.015999794006348 0.09300000220537186
H43 -5.860000133514404 7.855000019073486 -0.28999999165534973
H44 -5.679999828338623 7.711999893188477 1.4830000400543213
H45 -4.236999988555908 7.9629998207092285 0.45100000500679016
H46 -3.8570001125335693 3.2780001163482666 0.9819999933242798
H47 -3.8989999294281006 3.444999933242798 -0.7820000052452087
H48 -7.889999866485596 6.5980000495910645 0.5370000004768372
H49 -9.579999923706055 4.724999904632568 0.421999990940094
H50 -6.480999946594238 1.7890000343322754 0.04500000178813934
H51 5.429999828338623 -1.0959999561309814 0.9929999709129333

D 4 5 6 1 S 2 -15.000000
